# Solution for model JobShopModel
# Objective value = 925
y[0,0,2] 0
y[0,0,3] 1
y[0,1,1] 1
y[0,1,3] 0
y[0,2,0] 1
y[0,2,1] 0
y[1,0,2] 1
y[1,0,3] 0
y[1,1,1] 0
y[1,1,3] 1
y[1,2,0] 0
y[1,2,2] 1
y[2,0,2] 1
y[2,0,3] 0
y[2,1,1] 1
y[2,1,2] 0
y[2,2,0] 1
y[2,2,1] 0
x[0,0,0,0] 0
x[0,0,0,1] 0
x[0,0,0,2] 0
x[0,0,1,0] 1
x[0,0,1,1] 0
x[0,0,1,2] 1
x[0,0,2,0] 1
x[0,0,2,1] 1
x[0,0,2,2] 0
x[0,1,0,0] 1
x[0,1,0,1] 0
x[0,1,0,2] 1
x[0,1,1,0] 1
x[0,1,1,1] 0
x[0,1,1,2] 0
x[0,1,2,0] 0
x[0,1,2,1] 0
x[0,1,2,2] 0
x[0,2,0,0] 0
x[0,2,0,1] 0
x[0,2,0,2] 0
x[0,2,1,0] 0
x[0,2,1,1] 1
x[0,2,1,2] 0
x[0,2,2,0] 0
x[0,2,2,1] 1
x[0,2,2,2] 0
x[1,0,0,0] 0
x[1,0,0,1] 0
x[1,0,0,2] 0
x[1,0,1,0] 0
x[1,0,1,1] 1
x[1,0,1,2] 1
x[1,0,2,0] 1
x[1,0,2,1] 1
x[1,0,2,2] 0
x[1,1,0,0] 0
x[1,1,0,1] 0
x[1,1,0,2] 0
x[1,1,1,0] 0
x[1,1,1,1] 0
x[1,1,1,2] 0
x[1,1,2,0] 0
x[1,1,2,1] 1
x[1,1,2,2] 1
x[1,2,0,0] 0
x[1,2,0,1] 0
x[1,2,0,2] 0
x[1,2,1,0] 0
x[1,2,1,1] 0
x[1,2,1,2] 0
x[1,2,2,0] 0
x[1,2,2,1] 0
x[1,2,2,2] 1
x[2,0,0,0] 0
x[2,0,0,1] 0
x[2,0,0,2] 0
x[2,0,1,0] 0
x[2,0,1,1] 0
x[2,0,1,2] 0
x[2,0,2,0] 0
x[2,0,2,1] 0
x[2,0,2,2] 0
x[2,1,0,0] 0
x[2,1,0,1] 0
x[2,1,0,2] 0
x[2,1,1,0] 0
x[2,1,1,1] 0
x[2,1,1,2] 0
x[2,1,2,0] 1
x[2,1,2,1] 0
x[2,1,2,2] 0
x[2,2,0,0] 0
x[2,2,0,1] 0
x[2,2,0,2] 0
x[2,2,1,0] 0
x[2,2,1,1] 0
x[2,2,1,2] 0
x[2,2,2,0] 0
x[2,2,2,1] 0
x[2,2,2,2] 0
s[0,0,2] 0
s[0,0,3] 5.2700000000001182e+02
s[0,1,1] 497
s[0,1,3] 0
s[0,2,0] 480
s[0,2,1] 0
s[1,0,2] 8.3200000000002217e+02
s[1,0,3] 0
s[1,1,1] 0
s[1,1,3] 7.7700000000002217e+02
s[1,2,0] 0
s[1,2,2] 480
s[2,0,2] 6.9100000000000239e+02
s[2,0,3] 0
s[2,1,1] 621
s[2,1,2] 0
s[2,2,0] 563
s[2,2,1] 0
Z_FO 925
C118 0
C119 1
C120 1
C121 0
C122 1
C123 0
